NAME : X-n716-k35
COMMENT : "Generated by Uchoa, Pecin, Pessoa, Poggi, Subramanian, and Vidal (2013)"
TYPE : CVRP
DIMENSION : 716
EDGE_WEIGHT_TYPE : EUC_2D
CAPACITY : 1007
NODE_COORD_SECTION
1 377 105
2 535 93
3 820 625
4 689 745
5 807 568
6 589 169
7 649 756
8 821 693
9 567 240
10 517 211
11 598 141
12 903 670
13 713 679
14 574 89
15 395 116
16 829 560
17 409 30
18 804 653
19 918 527
20 829 641
21 828 559
22 559 118
23 591 816
24 985 650
25 510 71
26 528 66
27 556 132
28 568 115
29 692 731
30 877 663
31 703 728
32 820 568
33 716 754
34 790 391
35 613 71
36 898 518
37 838 501
38 465 142
39 440 163
40 859 635
41 907 620
42 532 157
43 791 140
44 463 11
45 894 947
46 883 591
47 718 559
48 697 747
49 928 495
50 877 488
51 732 699
52 747 648
53 541 167
54 801 767
55 817 673
56 495 114
57 853 634
58 769 733
59 592 630
60 481 157
61 832 750
62 630 650
63 858 405
64 774 793
65 393 33
66 918 650
67 842 625
68 781 709
69 670 731
70 698 682
71 888 510
72 691 227
73 607 583
74 684 755
75 719 538
76 561 258
77 657 827
78 712 85
79 686 764
80 620 4
81 801 588
82 802 595
83 651 724
84 558 156
85 679 745
86 815 769
87 466 111
88 544 45
89 884 664
90 720 830
91 700 661
92 765 754
93 525 725
94 486 50
95 743 668
96 765 682
97 679 662
98 677 739
99 821 657
100 678 742
101 627 767
102 597 221
103 484 73
104 709 772
105 738 931
106 564 124
107 619 81
108 841 603
109 807 381
110 817 571
111 822 587
112 547 622
113 768 501
114 676 748
115 861 546
116 981 603
117 671 700
118 954 787
119 506 265
120 535 190
121 711 647
122 951 510
123 673 817
124 664 807
125 568 712
126 802 650
127 813 632
128 752 771
129 541 571
130 649 901
131 782 710
132 734 199
133 626 25
134 459 77
135 708 753
136 896 709
137 516 250
138 724 727
139 717 623
140 621 24
141 813 655
142 606 693
143 717 802
144 341 76
145 390 94
146 533 205
147 731 603
148 628 35
149 871 644
150 953 650
151 972 653
152 911 704
153 426 136
154 462 6
155 737 617
156 799 558
157 856 548
158 426 177
159 650 737
160 698 750
161 677 68
162 882 489
163 500 9
164 706 709
165 555 389
166 676 409
167 618 687
168 724 495
169 526 133
170 769 171
171 813 596
172 493 12
173 569 840
174 800 914
175 814 628
176 761 651
177 449 703
178 444 124
179 459 88
180 780 712
181 743 689
182 671 749
183 780 634
184 666 798
185 757 743
186 935 662
187 703 732
188 446 133
189 840 701
190 716 790
191 689 226
192 544 125
193 719 724
194 542 166
195 698 689
196 763 420
197 791 644
198 526 115
199 688 744
200 641 803
201 913 536
202 773 597
203 704 820
204 703 717
205 883 666
206 812 727
207 695 972
208 483 119
209 458 155
210 569 802
211 818 695
212 680 669
213 645 788
214 431 259
215 604 723
216 702 777
217 777 847
218 849 641
219 793 567
220 785 663
221 892 555
222 328 354
223 494 71
224 723 547
225 817 501
226 630 116
227 682 664
228 654 801
229 770 590
230 819 644
231 440 119
232 568 904
233 825 582
234 805 573
235 619 286
236 444 89
237 734 438
238 455 238
239 802 575
240 531 665
241 611 583
242 882 653
243 629 743
244 432 156
245 941 611
246 654 19
247 827 604
248 517 50
249 673 241
250 873 575
251 805 702
252 538 133
253 873 905
254 382 39
255 572 101
256 724 757
257 659 792
258 724 720
259 696 688
260 528 89
261 841 589
262 458 136
263 399 884
264 474 156
265 395 137
266 464 23
267 787 798
268 449 182
269 472 104
270 558 0
271 719 534
272 826 574
273 510 126
274 564 190
275 576 211
276 827 635
277 531 155
278 553 135
279 586 5
280 532 92
281 539 408
282 571 678
283 524 221
284 831 657
285 715 782
286 573 132
287 941 698
288 501 712
289 786 9
290 397 88
291 528 185
292 614 113
293 370 164
294 722 24
295 676 561
296 810 607
297 839 712
298 791 642
299 565 17
300 906 703
301 497 60
302 897 655
303 933 544
304 905 584
305 796 690
306 619 848
307 426 263
308 560 205
309 794 660
310 500 633
311 777 677
312 701 755
313 538 23
314 439 226
315 659 216
316 479 165
317 762 652
318 635 649
319 603 716
320 469 60
321 961 442
322 830 674
323 906 771
324 610 158
325 908 677
326 380 165
327 644 481
328 582 14
329 724 774
330 898 676
331 647 742
332 523 98
333 685 113
334 848 868
335 981 544
336 676 692
337 680 745
338 645 758
339 557 68
340 757 755
341 686 747
342 799 670
343 516 261
344 507 53
345 785 686
346 672 53
347 495 73
348 617 30
349 375 182
350 398 104
351 587 644
352 632 164
353 687 765
354 530 37
355 656 509
356 708 738
357 670 841
358 420 201
359 832 651
360 669 756
361 693 707
362 834 40
363 790 543
364 456 235
365 971 447
366 758 803
367 762 602
368 578 210
369 721 751
370 708 762
371 622 645
372 701 683
373 537 199
374 820 588
375 734 650
376 841 717
377 488 202
378 741 780
379 788 773
380 991 514
381 640 746
382 849 646
383 879 660
384 865 695
385 697 803
386 537 90
387 478 251
388 652 757
389 589 6
390 588 132
391 832 604
392 553 791
393 863 485
394 722 716
395 811 641
396 477 61
397 653 665
398 943 769
399 417 157
400 577 15
401 623 524
402 917 694
403 894 565
404 563 48
405 732 557
406 877 596
407 520 80
408 746 900
409 719 547
410 785 617
411 833 635
412 682 720
413 708 619
414 717 744
415 576 805
416 724 645
417 624 678
418 420 66
419 684 762
420 603 661
421 565 102
422 658 696
423 657 772
424 685 550
425 420 118
426 611 73
427 477 191
428 739 646
429 696 742
430 680 629
431 499 127
432 630 1
433 458 130
434 814 606
435 703 731
436 540 79
437 704 774
438 794 695
439 809 734
440 636 81
441 667 716
442 866 744
443 908 653
444 537 119
445 592 805
446 805 793
447 615 727
448 611 127
449 579 90
450 854 854
451 524 75
452 758 738
453 489 114
454 494 94
455 737 606
456 528 65
457 547 656
458 559 88
459 522 61
460 482 815
461 488 816
462 817 608
463 890 512
464 678 165
465 995 478
466 544 195
467 757 607
468 814 524
469 801 670
470 901 581
471 709 580
472 924 348
473 945 660
474 607 77
475 734 731
476 695 744
477 648 914
478 516 34
479 531 66
480 400 777
481 709 609
482 854 545
483 739 759
484 850 405
485 745 749
486 956 623
487 674 735
488 522 149
489 767 665
490 668 719
491 700 119
492 856 825
493 884 343
494 738 650
495 704 884
496 686 655
497 669 715
498 613 404
499 839 634
500 673 770
501 458 198
502 535 155
503 681 673
504 612 153
505 680 186
506 508 183
507 617 696
508 854 424
509 752 788
510 609 792
511 815 832
512 727 873
513 682 693
514 539 196
515 657 736
516 621 216
517 747 614
518 786 784
519 941 669
520 629 62
521 799 640
522 512 85
523 790 810
524 659 773
525 814 655
526 723 624
527 904 688
528 614 81
529 766 472
530 622 737
531 746 775
532 724 690
533 553 87
534 488 46
535 728 755
536 629 541
537 545 91
538 683 771
539 759 838
540 770 472
541 828 706
542 947 526
543 571 297
544 891 583
545 617 861
546 909 572
547 473 73
548 684 261
549 857 723
550 949 759
551 549 106
552 771 552
553 776 859
554 669 741
555 607 102
556 496 70
557 681 708
558 624 784
559 548 78
560 864 673
561 952 875
562 651 752
563 709 747
564 724 748
565 266 39
566 625 743
567 894 666
568 928 560
569 666 620
570 707 731
571 511 817
572 622 699
573 779 670
574 805 653
575 714 810
576 912 739
577 652 689
578 620 693
579 508 130
580 773 560
581 528 154
582 653 486
583 534 55
584 453 106
585 820 653
586 707 784
587 816 606
588 618 298
589 798 672
590 720 862
591 614 45
592 493 26
593 747 740
594 757 655
595 504 689
596 845 653
597 551 125
598 734 628
599 705 719
600 463 8
601 680 929
602 678 618
603 576 77
604 574 577
605 478 93
606 624 110
607 801 601
608 716 610
609 924 825
610 692 799
611 490 168
612 644 822
613 569 6
614 757 397
615 873 635
616 629 137
617 623 728
618 723 618
619 778 727
620 701 727
621 655 71
622 878 620
623 629 757
624 834 753
625 883 622
626 582 30
627 852 520
628 828 545
629 737 691
630 698 610
631 660 626
632 710 688
633 725 765
634 653 735
635 724 719
636 829 553
637 783 886
638 635 6
639 853 652
640 759 729
641 598 56
642 731 454
643 699 762
644 931 436
645 877 690
646 646 849
647 672 660
648 692 743
649 733 600
650 782 574
651 723 64
652 479 75
653 560 127
654 418 158
655 610 838
656 406 120
657 509 118
658 645 98
659 627 101
660 852 709
661 999 816
662 793 527
663 742 669
664 616 172
665 458 301
666 700 223
667 747 764
668 677 767
669 654 102
670 687 680
671 902 705
672 529 653
673 769 686
674 810 979
675 891 663
676 836 883
677 917 552
678 580 241
679 828 605
680 650 340
681 845 598
682 494 195
683 903 617
684 652 236
685 957 745
686 720 631
687 573 182
688 716 702
689 698 762
690 535 124
691 480 176
692 661 559
693 520 195
694 887 583
695 536 133
696 609 48
697 533 641
698 929 673
699 906 679
700 721 79
701 887 598
702 634 37
703 990 612
704 927 659
705 654 624
706 552 100
707 846 570
708 658 676
709 525 68
710 892 591
711 462 157
712 909 770
713 649 951
714 863 795
715 619 603
716 869 503
PICKUP_AND_DELIVERY_SECTION
1 0 0 1000000000 0 0 0
2 0 0 1000000000 0 0 47
3 0 0 1000000000 0 21 0
4 0 0 1000000000 0 0 19
5 0 0 1000000000 0 37 0
6 0 0 1000000000 0 0 40
7 0 0 1000000000 0 79 0
8 0 0 1000000000 0 0 60
9 0 0 1000000000 0 88 0
10 0 0 1000000000 0 0 84
11 0 0 1000000000 0 75 0
12 0 0 1000000000 0 0 12
13 0 0 1000000000 0 42 0
14 0 0 1000000000 0 0 21
15 0 0 1000000000 0 91 0
16 0 0 1000000000 0 0 6
17 0 0 1000000000 0 57 0
18 0 0 1000000000 0 0 7
19 0 0 1000000000 0 66 0
20 0 0 1000000000 0 0 7
21 0 0 1000000000 0 99 0
22 0 0 1000000000 0 0 75
23 0 0 1000000000 0 4 0
24 0 0 1000000000 0 0 85
25 0 0 1000000000 0 10 0
26 0 0 1000000000 0 0 29
27 0 0 1000000000 0 6 0
28 0 0 1000000000 0 0 20
29 0 0 1000000000 0 7 0
30 0 0 1000000000 0 0 50
31 0 0 1000000000 0 26 0
32 0 0 1000000000 0 0 29
33 0 0 1000000000 0 99 0
34 0 0 1000000000 0 0 45
35 0 0 1000000000 0 57 0
36 0 0 1000000000 0 0 14
37 0 0 1000000000 0 33 0
38 0 0 1000000000 0 0 2
39 0 0 1000000000 0 38 0
40 0 0 1000000000 0 0 43
41 0 0 1000000000 0 64 0
42 0 0 1000000000 0 0 85
43 0 0 1000000000 0 84 0
44 0 0 1000000000 0 0 46
45 0 0 1000000000 0 53 0
46 0 0 1000000000 0 0 45
47 0 0 1000000000 0 48 0
48 0 0 1000000000 0 0 48
49 0 0 1000000000 0 85 0
50 0 0 1000000000 0 0 60
51 0 0 1000000000 0 2 0
52 0 0 1000000000 0 0 17
53 0 0 1000000000 0 12 0
54 0 0 1000000000 0 0 99
55 0 0 1000000000 0 43 0
56 0 0 1000000000 0 0 40
57 0 0 1000000000 0 29 0
58 0 0 1000000000 0 0 13
59 0 0 1000000000 0 29 0
60 0 0 1000000000 0 0 26
61 0 0 1000000000 0 66 0
62 0 0 1000000000 0 0 45
63 0 0 1000000000 0 34 0
64 0 0 1000000000 0 0 33
65 0 0 1000000000 0 6 0
66 0 0 1000000000 0 0 72
67 0 0 1000000000 0 34 0
68 0 0 1000000000 0 0 16
69 0 0 1000000000 0 36 0
70 0 0 1000000000 0 0 69
71 0 0 1000000000 0 10 0
72 0 0 1000000000 0 0 10
73 0 0 1000000000 0 12 0
74 0 0 1000000000 0 0 97
75 0 0 1000000000 0 87 0
76 0 0 1000000000 0 0 24
77 0 0 1000000000 0 57 0
78 0 0 1000000000 0 0 17
79 0 0 1000000000 0 86 0
80 0 0 1000000000 0 0 76
81 0 0 1000000000 0 81 0
82 0 0 1000000000 0 0 30
83 0 0 1000000000 0 10 0
84 0 0 1000000000 0 0 36
85 0 0 1000000000 0 28 0
86 0 0 1000000000 0 0 41
87 0 0 1000000000 0 53 0
88 0 0 1000000000 0 0 7
89 0 0 1000000000 0 40 0
90 0 0 1000000000 0 0 46
91 0 0 1000000000 0 28 0
92 0 0 1000000000 0 0 28
93 0 0 1000000000 0 62 0
94 0 0 1000000000 0 0 51
95 0 0 1000000000 0 30 0
96 0 0 1000000000 0 0 98
97 0 0 1000000000 0 53 0
98 0 0 1000000000 0 0 5
99 0 0 1000000000 0 15 0
100 0 0 1000000000 0 0 27
101 0 0 1000000000 0 37 0
102 0 0 1000000000 0 0 68
103 0 0 1000000000 0 11 0
104 0 0 1000000000 0 0 14
105 0 0 1000000000 0 71 0
106 0 0 1000000000 0 0 97
107 0 0 1000000000 0 49 0
108 0 0 1000000000 0 0 50
109 0 0 1000000000 0 43 0
110 0 0 1000000000 0 0 65
111 0 0 1000000000 0 19 0
112 0 0 1000000000 0 0 42
113 0 0 1000000000 0 88 0
114 0 0 1000000000 0 0 96
115 0 0 1000000000 0 57 0
116 0 0 1000000000 0 0 65
117 0 0 1000000000 0 36 0
118 0 0 1000000000 0 0 28
119 0 0 1000000000 0 50 0
120 0 0 1000000000 0 0 38
121 0 0 1000000000 0 84 0
122 0 0 1000000000 0 0 8
123 0 0 1000000000 0 69 0
124 0 0 1000000000 0 0 29
125 0 0 1000000000 0 86 0
126 0 0 1000000000 0 0 99
127 0 0 1000000000 0 29 0
128 0 0 1000000000 0 0 78
129 0 0 1000000000 0 79 0
130 0 0 1000000000 0 0 23
131 0 0 1000000000 0 68 0
132 0 0 1000000000 0 0 50
133 0 0 1000000000 0 26 0
134 0 0 1000000000 0 0 26
135 0 0 1000000000 0 57 0
136 0 0 1000000000 0 0 10
137 0 0 1000000000 0 84 0
138 0 0 1000000000 0 0 64
139 0 0 1000000000 0 35 0
140 0 0 1000000000 0 0 27
141 0 0 1000000000 0 3 0
142 0 0 1000000000 0 0 18
143 0 0 1000000000 0 63 0
144 0 0 1000000000 0 0 100
145 0 0 1000000000 0 45 0
146 0 0 1000000000 0 0 35
147 0 0 1000000000 0 7 0
148 0 0 1000000000 0 0 7
149 0 0 1000000000 0 29 0
150 0 0 1000000000 0 0 90
151 0 0 1000000000 0 49 0
152 0 0 1000000000 0 0 86
153 0 0 1000000000 0 100 0
154 0 0 1000000000 0 0 75
155 0 0 1000000000 0 18 0
156 0 0 1000000000 0 0 32
157 0 0 1000000000 0 29 0
158 0 0 1000000000 0 0 15
159 0 0 1000000000 0 47 0
160 0 0 1000000000 0 0 26
161 0 0 1000000000 0 27 0
162 0 0 1000000000 0 0 4
163 0 0 1000000000 0 57 0
164 0 0 1000000000 0 0 88
165 0 0 1000000000 0 94 0
166 0 0 1000000000 0 0 73
167 0 0 1000000000 0 64 0
168 0 0 1000000000 0 0 49
169 0 0 1000000000 0 89 0
170 0 0 1000000000 0 0 76
171 0 0 1000000000 0 13 0
172 0 0 1000000000 0 0 57
173 0 0 1000000000 0 27 0
174 0 0 1000000000 0 0 4
175 0 0 1000000000 0 34 0
176 0 0 1000000000 0 0 2
177 0 0 1000000000 0 93 0
178 0 0 1000000000 0 0 27
179 0 0 1000000000 0 26 0
180 0 0 1000000000 0 0 67
181 0 0 1000000000 0 95 0
182 0 0 1000000000 0 0 54
183 0 0 1000000000 0 67 0
184 0 0 1000000000 0 0 5
185 0 0 1000000000 0 31 0
186 0 0 1000000000 0 0 26
187 0 0 1000000000 0 40 0
188 0 0 1000000000 0 0 40
189 0 0 1000000000 0 81 0
190 0 0 1000000000 0 0 27
191 0 0 1000000000 0 100 0
192 0 0 1000000000 0 0 96
193 0 0 1000000000 0 35 0
194 0 0 1000000000 0 0 26
195 0 0 1000000000 0 48 0
196 0 0 1000000000 0 0 45
197 0 0 1000000000 0 31 0
198 0 0 1000000000 0 0 36
199 0 0 1000000000 0 46 0
200 0 0 1000000000 0 0 85
201 0 0 1000000000 0 29 0
202 0 0 1000000000 0 0 11
203 0 0 1000000000 0 46 0
204 0 0 1000000000 0 0 44
205 0 0 1000000000 0 5 0
206 0 0 1000000000 0 0 51
207 0 0 1000000000 0 47 0
208 0 0 1000000000 0 0 2
209 0 0 1000000000 0 72 0
210 0 0 1000000000 0 0 48
211 0 0 1000000000 0 81 0
212 0 0 1000000000 0 0 47
213 0 0 1000000000 0 26 0
214 0 0 1000000000 0 0 48
215 0 0 1000000000 0 18 0
216 0 0 1000000000 0 0 47
217 0 0 1000000000 0 15 0
218 0 0 1000000000 0 0 39
219 0 0 1000000000 0 1 0
220 0 0 1000000000 0 0 57
221 0 0 1000000000 0 34 0
222 0 0 1000000000 0 0 65
223 0 0 1000000000 0 3 0
224 0 0 1000000000 0 0 40
225 0 0 1000000000 0 46 0
226 0 0 1000000000 0 0 66
227 0 0 1000000000 0 7 0
228 0 0 1000000000 0 0 23
229 0 0 1000000000 0 29 0
230 0 0 1000000000 0 0 44
231 0 0 1000000000 0 21 0
232 0 0 1000000000 0 0 72
233 0 0 1000000000 0 44 0
234 0 0 1000000000 0 0 46
235 0 0 1000000000 0 1 0
236 0 0 1000000000 0 0 91
237 0 0 1000000000 0 29 0
238 0 0 1000000000 0 0 86
239 0 0 1000000000 0 18 0
240 0 0 1000000000 0 0 53
241 0 0 1000000000 0 24 0
242 0 0 1000000000 0 0 78
243 0 0 1000000000 0 36 0
244 0 0 1000000000 0 0 50
245 0 0 1000000000 0 13 0
246 0 0 1000000000 0 0 1
247 0 0 1000000000 0 19 0
248 0 0 1000000000 0 0 66
249 0 0 1000000000 0 95 0
250 0 0 1000000000 0 0 92
251 0 0 1000000000 0 67 0
252 0 0 1000000000 0 0 85
253 0 0 1000000000 0 77 0
254 0 0 1000000000 0 0 56
255 0 0 1000000000 0 71 0
256 0 0 1000000000 0 0 11
257 0 0 1000000000 0 99 0
258 0 0 1000000000 0 0 4
259 0 0 1000000000 0 100 0
260 0 0 1000000000 0 0 26
261 0 0 1000000000 0 78 0
262 0 0 1000000000 0 0 24
263 0 0 1000000000 0 2 0
264 0 0 1000000000 0 0 61
265 0 0 1000000000 0 73 0
266 0 0 1000000000 0 0 62
267 0 0 1000000000 0 43 0
268 0 0 1000000000 0 0 1
269 0 0 1000000000 0 89 0
270 0 0 1000000000 0 0 39
271 0 0 1000000000 0 63 0
272 0 0 1000000000 0 0 8
273 0 0 1000000000 0 89 0
274 0 0 1000000000 0 0 94
275 0 0 1000000000 0 57 0
276 0 0 1000000000 0 0 79
277 0 0 1000000000 0 46 0
278 0 0 1000000000 0 0 41
279 0 0 1000000000 0 85 0
280 0 0 1000000000 0 0 15
281 0 0 1000000000 0 10 0
282 0 0 1000000000 0 0 64
283 0 0 1000000000 0 2 0
284 0 0 1000000000 0 0 27
285 0 0 1000000000 0 1 0
286 0 0 1000000000 0 0 28
287 0 0 1000000000 0 21 0
288 0 0 1000000000 0 0 63
289 0 0 1000000000 0 36 0
290 0 0 1000000000 0 0 18
291 0 0 1000000000 0 91 0
292 0 0 1000000000 0 0 57
293 0 0 1000000000 0 68 0
294 0 0 1000000000 0 0 5
295 0 0 1000000000 0 6 0
296 0 0 1000000000 0 0 7
297 0 0 1000000000 0 59 0
298 0 0 1000000000 0 0 34
299 0 0 1000000000 0 39 0
300 0 0 1000000000 0 0 77
301 0 0 1000000000 0 75 0
302 0 0 1000000000 0 0 37
303 0 0 1000000000 0 98 0
304 0 0 1000000000 0 0 20
305 0 0 1000000000 0 7 0
306 0 0 1000000000 0 0 74
307 0 0 1000000000 0 10 0
308 0 0 1000000000 0 0 37
309 0 0 1000000000 0 16 0
310 0 0 1000000000 0 0 95
311 0 0 1000000000 0 31 0
312 0 0 1000000000 0 0 46
313 0 0 1000000000 0 1 0
314 0 0 1000000000 0 0 32
315 0 0 1000000000 0 74 0
316 0 0 1000000000 0 0 87
317 0 0 1000000000 0 97 0
318 0 0 1000000000 0 0 9
319 0 0 1000000000 0 69 0
320 0 0 1000000000 0 0 49
321 0 0 1000000000 0 96 0
322 0 0 1000000000 0 0 84
323 0 0 1000000000 0 48 0
324 0 0 1000000000 0 0 19
325 0 0 1000000000 0 90 0
326 0 0 1000000000 0 0 15
327 0 0 1000000000 0 49 0
328 0 0 1000000000 0 0 63
329 0 0 1000000000 0 41 0
330 0 0 1000000000 0 0 42
331 0 0 1000000000 0 53 0
332 0 0 1000000000 0 0 22
333 0 0 1000000000 0 79 0
334 0 0 1000000000 0 0 8
335 0 0 1000000000 0 37 0
336 0 0 1000000000 0 0 43
337 0 0 1000000000 0 20 0
338 0 0 1000000000 0 0 97
339 0 0 1000000000 0 61 0
340 0 0 1000000000 0 0 28
341 0 0 1000000000 0 13 0
342 0 0 1000000000 0 0 92
343 0 0 1000000000 0 74 0
344 0 0 1000000000 0 0 14
345 0 0 1000000000 0 9 0
346 0 0 1000000000 0 0 74
347 0 0 1000000000 0 46 0
348 0 0 1000000000 0 0 68
349 0 0 1000000000 0 56 0
350 0 0 1000000000 0 0 27
351 0 0 1000000000 0 29 0
352 0 0 1000000000 0 0 21
353 0 0 1000000000 0 21 0
354 0 0 1000000000 0 0 83
355 0 0 1000000000 0 34 0
356 0 0 1000000000 0 0 15
357 0 0 1000000000 0 35 0
358 0 0 1000000000 0 0 82
359 0 0 1000000000 0 46 0
360 0 0 1000000000 0 0 81
361 0 0 1000000000 0 60 0
362 0 0 1000000000 0 0 63
363 0 0 1000000000 0 51 0
364 0 0 1000000000 0 0 39
365 0 0 1000000000 0 90 0
366 0 0 1000000000 0 0 81
367 0 0 1000000000 0 97 0
368 0 0 1000000000 0 0 29
369 0 0 1000000000 0 67 0
370 0 0 1000000000 0 0 40
371 0 0 1000000000 0 75 0
372 0 0 1000000000 0 0 55
373 0 0 1000000000 0 28 0
374 0 0 1000000000 0 0 61
375 0 0 1000000000 0 29 0
376 0 0 1000000000 0 0 71
377 0 0 1000000000 0 74 0
378 0 0 1000000000 0 0 69
379 0 0 1000000000 0 86 0
380 0 0 1000000000 0 0 73
381 0 0 1000000000 0 68 0
382 0 0 1000000000 0 0 11
383 0 0 1000000000 0 17 0
384 0 0 1000000000 0 0 34
385 0 0 1000000000 0 51 0
386 0 0 1000000000 0 0 91
387 0 0 1000000000 0 17 0
388 0 0 1000000000 0 0 49
389 0 0 1000000000 0 93 0
390 0 0 1000000000 0 0 33
391 0 0 1000000000 0 12 0
392 0 0 1000000000 0 0 15
393 0 0 1000000000 0 57 0
394 0 0 1000000000 0 0 77
395 0 0 1000000000 0 99 0
396 0 0 1000000000 0 0 33
397 0 0 1000000000 0 100 0
398 0 0 1000000000 0 0 84
399 0 0 1000000000 0 92 0
400 0 0 1000000000 0 0 31
401 0 0 1000000000 0 90 0
402 0 0 1000000000 0 0 82
403 0 0 1000000000 0 17 0
404 0 0 1000000000 0 0 21
405 0 0 1000000000 0 52 0
406 0 0 1000000000 0 0 28
407 0 0 1000000000 0 11 0
408 0 0 1000000000 0 0 70
409 0 0 1000000000 0 38 0
410 0 0 1000000000 0 0 95
411 0 0 1000000000 0 59 0
412 0 0 1000000000 0 0 5
413 0 0 1000000000 0 23 0
414 0 0 1000000000 0 0 89
415 0 0 1000000000 0 49 0
416 0 0 1000000000 0 0 39
417 0 0 1000000000 0 27 0
418 0 0 1000000000 0 0 87
419 0 0 1000000000 0 61 0
420 0 0 1000000000 0 0 22
421 0 0 1000000000 0 55 0
422 0 0 1000000000 0 0 98
423 0 0 1000000000 0 64 0
424 0 0 1000000000 0 0 18
425 0 0 1000000000 0 72 0
426 0 0 1000000000 0 0 60
427 0 0 1000000000 0 62 0
428 0 0 1000000000 0 0 4
429 0 0 1000000000 0 99 0
430 0 0 1000000000 0 0 44
431 0 0 1000000000 0 40 0
432 0 0 1000000000 0 0 3
433 0 0 1000000000 0 29 0
434 0 0 1000000000 0 0 1
435 0 0 1000000000 0 54 0
436 0 0 1000000000 0 0 28
437 0 0 1000000000 0 75 0
438 0 0 1000000000 0 0 23
439 0 0 1000000000 0 37 0
440 0 0 1000000000 0 0 65
441 0 0 1000000000 0 40 0
442 0 0 1000000000 0 0 30
443 0 0 1000000000 0 29 0
444 0 0 1000000000 0 0 68
445 0 0 1000000000 0 13 0
446 0 0 1000000000 0 0 89
447 0 0 1000000000 0 41 0
448 0 0 1000000000 0 0 91
449 0 0 1000000000 0 89 0
450 0 0 1000000000 0 0 48
451 0 0 1000000000 0 32 0
452 0 0 1000000000 0 0 40
453 0 0 1000000000 0 11 0
454 0 0 1000000000 0 0 5
455 0 0 1000000000 0 17 0
456 0 0 1000000000 0 0 42
457 0 0 1000000000 0 47 0
458 0 0 1000000000 0 0 91
459 0 0 1000000000 0 7 0
460 0 0 1000000000 0 0 58
461 0 0 1000000000 0 78 0
462 0 0 1000000000 0 0 90
463 0 0 1000000000 0 55 0
464 0 0 1000000000 0 0 98
465 0 0 1000000000 0 24 0
466 0 0 1000000000 0 0 75
467 0 0 1000000000 0 51 0
468 0 0 1000000000 0 0 81
469 0 0 1000000000 0 88 0
470 0 0 1000000000 0 0 73
471 0 0 1000000000 0 21 0
472 0 0 1000000000 0 0 8
473 0 0 1000000000 0 22 0
474 0 0 1000000000 0 0 52
475 0 0 1000000000 0 64 0
476 0 0 1000000000 0 0 63
477 0 0 1000000000 0 29 0
478 0 0 1000000000 0 0 38
479 0 0 1000000000 0 9 0
480 0 0 1000000000 0 0 42
481 0 0 1000000000 0 78 0
482 0 0 1000000000 0 0 54
483 0 0 1000000000 0 96 0
484 0 0 1000000000 0 0 3
485 0 0 1000000000 0 53 0
486 0 0 1000000000 0 0 81
487 0 0 1000000000 0 87 0
488 0 0 1000000000 0 0 42
489 0 0 1000000000 0 21 0
490 0 0 1000000000 0 0 48
491 0 0 1000000000 0 98 0
492 0 0 1000000000 0 0 96
493 0 0 1000000000 0 27 0
494 0 0 1000000000 0 0 50
495 0 0 1000000000 0 53 0
496 0 0 1000000000 0 0 69
497 0 0 1000000000 0 17 0
498 0 0 1000000000 0 0 82
499 0 0 1000000000 0 74 0
500 0 0 1000000000 0 0 82
501 0 0 1000000000 0 81 0
502 0 0 1000000000 0 0 6
503 0 0 1000000000 0 80 0
504 0 0 1000000000 0 0 53
505 0 0 1000000000 0 23 0
506 0 0 1000000000 0 0 39
507 0 0 1000000000 0 28 0
508 0 0 1000000000 0 0 95
509 0 0 1000000000 0 59 0
510 0 0 1000000000 0 0 66
511 0 0 1000000000 0 66 0
512 0 0 1000000000 0 0 46
513 0 0 1000000000 0 34 0
514 0 0 1000000000 0 0 82
515 0 0 1000000000 0 18 0
516 0 0 1000000000 0 0 17
517 0 0 1000000000 0 70 0
518 0 0 1000000000 0 0 54
519 0 0 1000000000 0 89 0
520 0 0 1000000000 0 0 70
521 0 0 1000000000 0 35 0
522 0 0 1000000000 0 0 9
523 0 0 1000000000 0 1 0
524 0 0 1000000000 0 0 23
525 0 0 1000000000 0 37 0
526 0 0 1000000000 0 0 52
527 0 0 1000000000 0 50 0
528 0 0 1000000000 0 0 68
529 0 0 1000000000 0 48 0
530 0 0 1000000000 0 0 1
531 0 0 1000000000 0 87 0
532 0 0 1000000000 0 0 34
533 0 0 1000000000 0 45 0
534 0 0 1000000000 0 0 52
535 0 0 1000000000 0 29 0
536 0 0 1000000000 0 0 52
537 0 0 1000000000 0 85 0
538 0 0 1000000000 0 0 69
539 0 0 1000000000 0 87 0
540 0 0 1000000000 0 0 67
541 0 0 1000000000 0 96 0
542 0 0 1000000000 0 0 100
543 0 0 1000000000 0 31 0
544 0 0 1000000000 0 0 55
545 0 0 1000000000 0 99 0
546 0 0 1000000000 0 0 11
547 0 0 1000000000 0 64 0
548 0 0 1000000000 0 0 83
549 0 0 1000000000 0 54 0
550 0 0 1000000000 0 0 53
551 0 0 1000000000 0 39 0
552 0 0 1000000000 0 0 80
553 0 0 1000000000 0 30 0
554 0 0 1000000000 0 0 53
555 0 0 1000000000 0 83 0
556 0 0 1000000000 0 0 40
557 0 0 1000000000 0 98 0
558 0 0 1000000000 0 0 25
559 0 0 1000000000 0 61 0
560 0 0 1000000000 0 0 50
561 0 0 1000000000 0 57 0
562 0 0 1000000000 0 0 9
563 0 0 1000000000 0 58 0
564 0 0 1000000000 0 0 40
565 0 0 1000000000 0 71 0
566 0 0 1000000000 0 0 37
567 0 0 1000000000 0 83 0
568 0 0 1000000000 0 0 60
569 0 0 1000000000 0 49 0
570 0 0 1000000000 0 0 21
571 0 0 1000000000 0 8 0
572 0 0 1000000000 0 0 81
573 0 0 1000000000 0 30 0
574 0 0 1000000000 0 0 68
575 0 0 1000000000 0 17 0
576 0 0 1000000000 0 0 23
577 0 0 1000000000 0 13 0
578 0 0 1000000000 0 0 17
579 0 0 1000000000 0 1 0
580 0 0 1000000000 0 0 5
581 0 0 1000000000 0 95 0
582 0 0 1000000000 0 0 6
583 0 0 1000000000 0 52 0
584 0 0 1000000000 0 0 24
585 0 0 1000000000 0 47 0
586 0 0 1000000000 0 0 57
587 0 0 1000000000 0 8 0
588 0 0 1000000000 0 0 52
589 0 0 1000000000 0 2 0
590 0 0 1000000000 0 0 96
591 0 0 1000000000 0 2 0
592 0 0 1000000000 0 0 67
593 0 0 1000000000 0 85 0
594 0 0 1000000000 0 0 84
595 0 0 1000000000 0 51 0
596 0 0 1000000000 0 0 4
597 0 0 1000000000 0 50 0
598 0 0 1000000000 0 0 90
599 0 0 1000000000 0 59 0
600 0 0 1000000000 0 0 29
601 0 0 1000000000 0 54 0
602 0 0 1000000000 0 0 72
603 0 0 1000000000 0 54 0
604 0 0 1000000000 0 0 41
605 0 0 1000000000 0 51 0
606 0 0 1000000000 0 0 98
607 0 0 1000000000 0 42 0
608 0 0 1000000000 0 0 3
609 0 0 1000000000 0 16 0
610 0 0 1000000000 0 0 81
611 0 0 1000000000 0 92 0
612 0 0 1000000000 0 0 87
613 0 0 1000000000 0 84 0
614 0 0 1000000000 0 0 41
615 0 0 1000000000 0 44 0
616 0 0 1000000000 0 0 56
617 0 0 1000000000 0 25 0
618 0 0 1000000000 0 0 100
619 0 0 1000000000 0 42 0
620 0 0 1000000000 0 0 61
621 0 0 1000000000 0 39 0
622 0 0 1000000000 0 0 93
623 0 0 1000000000 0 89 0
624 0 0 1000000000 0 0 73
625 0 0 1000000000 0 73 0
626 0 0 1000000000 0 0 5
627 0 0 1000000000 0 32 0
628 0 0 1000000000 0 0 29
629 0 0 1000000000 0 71 0
630 0 0 1000000000 0 0 38
631 0 0 1000000000 0 72 0
632 0 0 1000000000 0 0 11
633 0 0 1000000000 0 41 0
634 0 0 1000000000 0 0 1
635 0 0 1000000000 0 92 0
636 0 0 1000000000 0 0 50
637 0 0 1000000000 0 51 0
638 0 0 1000000000 0 0 20
639 0 0 1000000000 0 19 0
640 0 0 1000000000 0 0 47
641 0 0 1000000000 0 49 0
642 0 0 1000000000 0 0 79
643 0 0 1000000000 0 4 0
644 0 0 1000000000 0 0 31
645 0 0 1000000000 0 11 0
646 0 0 1000000000 0 0 86
647 0 0 1000000000 0 32 0
648 0 0 1000000000 0 0 28
649 0 0 1000000000 0 7 0
650 0 0 1000000000 0 0 60
651 0 0 1000000000 0 51 0
652 0 0 1000000000 0 0 71
653 0 0 1000000000 0 99 0
654 0 0 1000000000 0 0 45
655 0 0 1000000000 0 36 0
656 0 0 1000000000 0 0 20
657 0 0 1000000000 0 62 0
658 0 0 1000000000 0 0 50
659 0 0 1000000000 0 67 0
660 0 0 1000000000 0 0 17
661 0 0 1000000000 0 27 0
662 0 0 1000000000 0 0 12
663 0 0 1000000000 0 37 0
664 0 0 1000000000 0 0 62
665 0 0 1000000000 0 52 0
666 0 0 1000000000 0 0 86
667 0 0 1000000000 0 88 0
668 0 0 1000000000 0 0 11
669 0 0 1000000000 0 19 0
670 0 0 1000000000 0 0 59
671 0 0 1000000000 0 66 0
672 0 0 1000000000 0 0 10
673 0 0 1000000000 0 53 0
674 0 0 1000000000 0 0 90
675 0 0 1000000000 0 3 0
676 0 0 1000000000 0 0 40
677 0 0 1000000000 0 67 0
678 0 0 1000000000 0 0 69
679 0 0 1000000000 0 29 0
680 0 0 1000000000 0 0 94
681 0 0 1000000000 0 32 0
682 0 0 1000000000 0 0 14
683 0 0 1000000000 0 1 0
684 0 0 1000000000 0 0 84
685 0 0 1000000000 0 73 0
686 0 0 1000000000 0 0 79
687 0 0 1000000000 0 61 0
688 0 0 1000000000 0 0 62
689 0 0 1000000000 0 91 0
690 0 0 1000000000 0 0 96
691 0 0 1000000000 0 21 0
692 0 0 1000000000 0 0 73
693 0 0 1000000000 0 6 0
694 0 0 1000000000 0 0 37
695 0 0 1000000000 0 71 0
696 0 0 1000000000 0 0 32
697 0 0 1000000000 0 26 0
698 0 0 1000000000 0 0 4
699 0 0 1000000000 0 8 0
700 0 0 1000000000 0 0 28
701 0 0 1000000000 0 47 0
702 0 0 1000000000 0 0 46
703 0 0 1000000000 0 97 0
704 0 0 1000000000 0 0 44
705 0 0 1000000000 0 69 0
706 0 0 1000000000 0 0 91
707 0 0 1000000000 0 54 0
708 0 0 1000000000 0 0 17
709 0 0 1000000000 0 42 0
710 0 0 1000000000 0 0 19
711 0 0 1000000000 0 53 0
712 0 0 1000000000 0 0 7
713 0 0 1000000000 0 41 0
714 0 0 1000000000 0 0 42
715 0 0 1000000000 0 56 0
716 0 0 1000000000 0 0 4
